;; translated from ./lustre/_6counter2.vmt
;; original benchmark available at: https://es-static.fbk.eu/people/griggio/ic3ia/index.html
;; author: Alberto Griggio <griggio@fbk.eu>
(set-logic HORN)
(declare-fun state (Bool Bool Bool Bool Bool Bool Bool Bool) Bool)
(assert (forall ((|flby__AT0| Bool) (|b__AT0| Bool) (|flby2__AT0| Bool) (|flby3__AT0| Bool) (|flby2__AT1| Bool) (|flby__AT1| Bool) (|flby3__AT1| Bool) (|_OK___AT1| Bool) (|a__AT1| Bool) (|c__AT1| Bool) (|b__AT1| Bool) (|_OK___AT0| Bool) (|a__AT0| Bool) (|param_x__AT0| Bool) (|param_x__AT1| Bool) (|c__AT0| Bool)) (=> (let ((.def_23 (and c__AT0 a__AT0)))
(let ((.def_24 (not .def_23)))
(let ((.def_26 (= .def_24 _OK___AT0)))
(let ((.def_22 (= flby__AT0 a__AT0)))
(let ((.def_27 (and .def_22 .def_26)))
(let ((.def_20 (= flby2__AT0 b__AT0)))
(let ((.def_28 (and .def_20 .def_27)))
(let ((.def_18 (= flby3__AT0 c__AT0)))
(let ((.def_29 (and .def_18 .def_28)))
(let ((.def_14 (not flby__AT0)))
(let ((.def_12 (not flby2__AT0)))
(let ((.def_15 (and .def_12 .def_14)))
(let ((.def_10 (not flby3__AT0)))
(let ((.def_16 (and .def_10 .def_15)))
(let ((.def_30 (and .def_16 .def_29)))
.def_30))))))))))))))) (state |flby3__AT0| |flby2__AT0| |flby__AT0| |c__AT0| |b__AT0| |a__AT0| |_OK___AT0| |param_x__AT0|))))
(assert (forall ((|flby__AT0| Bool) (|b__AT0| Bool) (|flby2__AT0| Bool) (|flby3__AT0| Bool) (|flby2__AT1| Bool) (|flby__AT1| Bool) (|flby3__AT1| Bool) (|_OK___AT1| Bool) (|a__AT1| Bool) (|c__AT1| Bool) (|b__AT1| Bool) (|_OK___AT0| Bool) (|a__AT0| Bool) (|param_x__AT0| Bool) (|param_x__AT1| Bool) (|c__AT0| Bool)) (=> (and (state |flby3__AT0| |flby2__AT0| |flby__AT0| |c__AT0| |b__AT0| |a__AT0| |_OK___AT0| |param_x__AT0|) (let ((.def_56 (not c__AT0)))
(let ((.def_55 (not b__AT0)))
(let ((.def_57 (and .def_55 .def_56)))
(let ((.def_58 (and a__AT0 .def_57)))
(let ((.def_48 (not a__AT0)))
(let ((.def_54 (and b__AT0 .def_48)))
(let ((.def_59 (or .def_54 .def_58)))
(let ((.def_60 (= flby2__AT1 .def_59)))
(let ((.def_53 (= flby__AT1 .def_48)))
(let ((.def_61 (and .def_53 .def_60)))
(let ((.def_50 (and b__AT0 a__AT0)))
(let ((.def_49 (and c__AT0 .def_48)))
(let ((.def_51 (or .def_49 .def_50)))
(let ((.def_52 (= flby3__AT1 .def_51)))
(let ((.def_62 (and .def_52 .def_61)))
(let ((.def_40 (and c__AT1 a__AT1)))
(let ((.def_41 (not .def_40)))
(let ((.def_43 (= .def_41 _OK___AT1)))
(let ((.def_39 (= a__AT1 flby__AT1)))
(let ((.def_44 (and .def_39 .def_43)))
(let ((.def_36 (= b__AT1 flby2__AT1)))
(let ((.def_45 (and .def_36 .def_44)))
(let ((.def_33 (= c__AT1 flby3__AT1)))
(let ((.def_46 (and .def_33 .def_45)))
(let ((.def_23 (and c__AT0 a__AT0)))
(let ((.def_24 (not .def_23)))
(let ((.def_26 (= .def_24 _OK___AT0)))
(let ((.def_22 (= flby__AT0 a__AT0)))
(let ((.def_27 (and .def_22 .def_26)))
(let ((.def_20 (= flby2__AT0 b__AT0)))
(let ((.def_28 (and .def_20 .def_27)))
(let ((.def_18 (= flby3__AT0 c__AT0)))
(let ((.def_29 (and .def_18 .def_28)))
(let ((.def_47 (and .def_29 .def_46)))
(let ((.def_63 (and .def_47 .def_62)))
.def_63)))))))))))))))))))))))))))))))))))) (state |flby3__AT1| |flby2__AT1| |flby__AT1| |c__AT1| |b__AT1| |a__AT1| |_OK___AT1| |param_x__AT1|))))
(assert (forall ((|flby__AT0| Bool) (|b__AT0| Bool) (|flby2__AT0| Bool) (|flby3__AT0| Bool) (|flby2__AT1| Bool) (|flby__AT1| Bool) (|flby3__AT1| Bool) (|_OK___AT1| Bool) (|a__AT1| Bool) (|c__AT1| Bool) (|b__AT1| Bool) (|_OK___AT0| Bool) (|a__AT0| Bool) (|param_x__AT0| Bool) (|param_x__AT1| Bool) (|c__AT0| Bool)) (=> (state |flby3__AT0| |flby2__AT0| |flby__AT0| |c__AT0| |b__AT0| |a__AT0| |_OK___AT0| |param_x__AT0|) _OK___AT0)))
(check-sat)
